unknown
(model
; cardinality of BoundSet is 3
(declare-sort BoundSet 0)
; rep: @uc_BoundSet_0
; rep: @uc_BoundSet_1
; rep: @uc_BoundSet_2
; cardinality of UnboundSet is 1
(declare-sort UnboundSet 0)
(declare-fun groundTerm_4 () UnboundSet)
(define-fun MakesLessPollution ((BOUND_VARIABLE_432 BoundSet) (BOUND_VARIABLE_433 BoundSet)) Bool true)
(define-fun ProducesPollution ((BOUND_VARIABLE_432 BoundSet) (BOUND_VARIABLE_433 BoundSet)) Bool true)
(define-fun IsLessPollutionProblem ((BOUND_VARIABLE_432 BoundSet) (BOUND_VARIABLE_433 BoundSet)) Bool false)
(define-fun IsPollutionProblem ((BOUND_VARIABLE_432 BoundSet) (BOUND_VARIABLE_433 BoundSet)) Bool false)
)
sat
(model
; cardinality of BoundSet is 1
(declare-sort BoundSet 0)
; rep: @uc_BoundSet_0
; cardinality of UnboundSet is 1
(declare-sort UnboundSet 0)
(declare-fun groundTerm_6 () UnboundSet)
(define-fun MakesLessPollution ((BOUND_VARIABLE_481 BoundSet) (BOUND_VARIABLE_482 BoundSet)) Bool true)
(define-fun ProducesPollution ((BOUND_VARIABLE_481 BoundSet) (BOUND_VARIABLE_482 BoundSet)) Bool true)
(define-fun IsLessPollutionProblem ((BOUND_VARIABLE_481 BoundSet) (BOUND_VARIABLE_482 BoundSet)) Bool false)
(define-fun IsPollutionProblem ((BOUND_VARIABLE_481 BoundSet) (BOUND_VARIABLE_482 BoundSet)) Bool true)
)
